p cnf 291 269
c p distribution  0.6721176592 0.3277794919 0.0001028489
c p distribution  0.62038586 0.37950262 0.00011152
c p distribution  0.9750859107 0.0240549828 0.0008591065
c p distribution  0.334950584 0.6648697215 0.0001796945
c p distribution  0.821408184 0.1782019687 0.0003898473
c p distribution  0.9483619 0.05154733 9.075234e-05
c p distribution  7.682262e-05 0.1183068 0.8816163
c p distribution  0.177105936 0.813732581 0.009161483
c p distribution  0.1703412073 0.8293963255 0.0002624672
c p distribution  0.85051343 0.13872433 0.01076224
c p distribution  0.1177122 0.6919357 0.1903521
c p distribution  0.07405991 0.70044614 0.22549395
c p distribution  0.3870326 0.4836913 0.1292761
c p distribution  0.04895789 0.72823961 0.2228025
c p distribution  0.003663004 0.102564103 0.893772894
c p distribution  0.008682883 0.187958884 0.803358233
c p distribution  0.001153403 0.748558247 0.250288351
c p distribution  0.03333333 0.03333333 0.93333333
c p distribution  0.2899262 0.2457641 0.4643097
c p distribution  0.5794436587 0.4203206035 0.0002357379
c p distribution  0.00456621 0.99086758 0.00456621
c p distribution  0.5766701 0.4232872 4.271314e-05
c p distribution  0.6129037 0.3870808 1.543138e-05
c p distribution  0.0446898 0.93495569 0.02035451
c p distribution  0.996124 0.003806755 6.921373e-05
c p distribution  0.8623005877 0.1368597817 0.0008396306
c p distribution  0.155367232 0.84180791 0.002824859
c p distribution  0.7451772095 0.2545984747 0.0002243158
c p distribution  0.3846008 0.1231368 0.4922624
c p distribution  0.262181426 0.001450275 0.736368299
c p distribution  0.7066581578 0.2931291215 0.0002127207
c p distribution  0.2692763938 0.7304863582 0.0002372479
c p distribution  0.85065617 0.10656168 0.04278215
c p distribution  0.854385965 0.143859649 0.001754386
c p distribution  0.01190476 0.97619048 0.01190476
c p distribution  0.3333333 0.3333333 0.3333333
c p distribution  0.7576915 0.2422767 3.181572e-05
c p distribution  0.343172087 0.649403298 0.007424615
c p distribution  0.8652899 0.1010029 0.0337072
c p distribution  0.7148153 0.2851753 9.338376e-06
c p distribution  0.27465766 0.72002723 0.00531511
c p distribution  0.2814957 0.5851161 0.1333882
c p distribution  0.8256463 0.1743254 2.831337e-05
c p distribution  0.1054112554 0.8943722944 0.0002164502
c p distribution  0.9977281 0.002244485 2.737176e-05
c p distribution  0.9996370895 0.0001814553 0.0001814553
c p distribution  0.9361046959 0.0007698229 0.0631254811
c p distribution  0.9689835575 0.0306427504 0.0003736921
c p distribution  0.498470948 0.498470948 0.003058104
c p distribution  0.725950783 0.272930649 0.001118568
c p distribution  0.006060606 0.987878788 0.006060606
c p distribution  0.30691159 0.06458648 0.62850193
c p distribution  0.6558227251 0.343941537 0.0002357379
c p distribution  0.86757991 0.12785388 0.00456621
c p distribution  0.919186742 0.078464036 0.002349223
c p distribution  0.8149777 0.1850069 1.543138e-05
c p distribution  0.80313955 0.19272946 0.00413099
c p distribution  0.80737818 0.09163898 0.10098283
c p distribution  0.3862301 0.1595298 0.4542401
c p distribution  0.765536723 0.231638418 0.002824859
c p distribution  0.9967915 0.003169817 3.865631e-05
c p distribution  0.997890295 0.001054852 0.001054852
c p distribution  0.2218092 0.4936493 0.2845415
c p distribution  0.9867112 0.01326991 1.887612e-05
c p distribution  0.957165109 0.0424454829 0.0003894081
c p distribution  0.07672787 0.39110315 0.53216898
c p distribution  0.872401162 0.120070734 0.007528104
c p distribution  0.52180956 0.46245517 0.01573528
c p distribution  0.02641691 0.05235351 0.92122959
c p distribution  0.218431 0.4473238 0.3342453
c p distribution  0.07796694 0.21120158 0.71083148
c p distribution  0.4237055 0.4396535 0.1366411
c p distribution  0.3864255 0.3794243 0.2341501
c p distribution  0.06039638 0.92264651 0.01695712
c p distribution  0.01577014 0.95873839 0.02549147
c p distribution  0.42313152 0.4816392 0.09522928
c p distribution  0.81213356 0.08337962 0.10448682
c p distribution  0.06232176 0.14724878 0.79042946
c p distribution  0.3694012 0.3312117 0.2993871
c p distribution  0.86757991 0.12785388 0.00456621
c p distribution  0.4475056 0.3125747 0.2399197
c p distribution  0.55082326 0.39291391 0.05626283
c p distribution  0.8842572 0.1156677 7.510891e-05
c p distribution  0.84288483 0.12714563 0.02996955
c p distribution  0.74895046 0.15952981 0.09151973
c p distribution  0.84180791 0.155367232 0.002824859
259 -262 -280 -1 0
260 -262 -280 -2 0
261 -262 -280 -3 0
259 -262 -281 -4 0
260 -262 -281 -5 0
261 -262 -281 -6 0
259 -262 -282 -7 0
260 -262 -282 -8 0
261 -262 -282 -9 0
259 -263 -280 -10 0
260 -263 -280 -11 0
261 -263 -280 -12 0
259 -263 -281 -13 0
260 -263 -281 -14 0
261 -263 -281 -15 0
259 -263 -282 -16 0
260 -263 -282 -17 0
261 -263 -282 -18 0
259 -264 -280 -19 0
260 -264 -280 -20 0
261 -264 -280 -21 0
259 -264 -281 -22 0
260 -264 -281 -23 0
261 -264 -281 -24 0
259 -264 -282 -25 0
260 -264 -282 -26 0
261 -264 -282 -27 0
262 -268 -280 -28 0
263 -268 -280 -29 0
264 -268 -280 -30 0
262 -268 -281 -31 0
263 -268 -281 -32 0
264 -268 -281 -33 0
262 -268 -282 -34 0
263 -268 -282 -35 0
264 -268 -282 -36 0
262 -269 -280 -37 0
263 -269 -280 -38 0
264 -269 -280 -39 0
262 -269 -281 -40 0
263 -269 -281 -41 0
264 -269 -281 -42 0
262 -269 -282 -43 0
263 -269 -282 -44 0
264 -269 -282 -45 0
262 -270 -280 -46 0
263 -270 -280 -47 0
264 -270 -280 -48 0
262 -270 -281 -49 0
263 -270 -281 -50 0
264 -270 -281 -51 0
262 -270 -282 -52 0
263 -270 -282 -53 0
264 -270 -282 -54 0
265 -280 -283 -55 0
266 -280 -283 -56 0
267 -280 -283 -57 0
265 -280 -284 -58 0
266 -280 -284 -59 0
267 -280 -284 -60 0
265 -280 -285 -61 0
266 -280 -285 -62 0
267 -280 -285 -63 0
265 -281 -283 -64 0
266 -281 -283 -65 0
267 -281 -283 -66 0
265 -281 -284 -67 0
266 -281 -284 -68 0
267 -281 -284 -69 0
265 -281 -285 -70 0
266 -281 -285 -71 0
267 -281 -285 -72 0
265 -282 -283 -73 0
266 -282 -283 -74 0
267 -282 -283 -75 0
265 -282 -284 -76 0
266 -282 -284 -77 0
267 -282 -284 -78 0
265 -282 -285 -79 0
266 -282 -285 -80 0
267 -282 -285 -81 0
268 -280 -283 -289 -82 0
269 -280 -283 -289 -83 0
270 -280 -283 -289 -84 0
268 -280 -283 -290 -85 0
269 -280 -283 -290 -86 0
270 -280 -283 -290 -87 0
268 -280 -283 -291 -88 0
269 -280 -283 -291 -89 0
270 -280 -283 -291 -90 0
268 -280 -284 -289 -91 0
269 -280 -284 -289 -92 0
270 -280 -284 -289 -93 0
268 -280 -284 -290 -94 0
269 -280 -284 -290 -95 0
270 -280 -284 -290 -96 0
268 -280 -284 -291 -97 0
269 -280 -284 -291 -98 0
270 -280 -284 -291 -99 0
268 -280 -285 -289 -100 0
269 -280 -285 -289 -101 0
270 -280 -285 -289 -102 0
268 -280 -285 -290 -103 0
269 -280 -285 -290 -104 0
270 -280 -285 -290 -105 0
268 -280 -285 -291 -106 0
269 -280 -285 -291 -107 0
270 -280 -285 -291 -108 0
268 -281 -283 -289 -109 0
269 -281 -283 -289 -110 0
270 -281 -283 -289 -111 0
268 -281 -283 -290 -112 0
269 -281 -283 -290 -113 0
270 -281 -283 -290 -114 0
268 -281 -283 -291 -115 0
269 -281 -283 -291 -116 0
270 -281 -283 -291 -117 0
268 -281 -284 -289 -118 0
269 -281 -284 -289 -119 0
270 -281 -284 -289 -120 0
268 -281 -284 -290 -121 0
269 -281 -284 -290 -122 0
270 -281 -284 -290 -123 0
268 -281 -284 -291 -124 0
269 -281 -284 -291 -125 0
270 -281 -284 -291 -126 0
268 -281 -285 -289 -127 0
269 -281 -285 -289 -128 0
270 -281 -285 -289 -129 0
268 -281 -285 -290 -130 0
269 -281 -285 -290 -131 0
270 -281 -285 -290 -132 0
268 -281 -285 -291 -106 0
269 -281 -285 -291 -107 0
270 -281 -285 -291 -108 0
268 -282 -283 -289 -133 0
269 -282 -283 -289 -134 0
270 -282 -283 -289 -135 0
268 -282 -283 -290 -136 0
269 -282 -283 -290 -137 0
270 -282 -283 -290 -138 0
268 -282 -283 -291 -139 0
269 -282 -283 -291 -140 0
270 -282 -283 -291 -141 0
268 -282 -284 -289 -142 0
269 -282 -284 -289 -143 0
270 -282 -284 -289 -144 0
268 -282 -284 -290 -100 0
269 -282 -284 -290 -101 0
270 -282 -284 -290 -102 0
268 -282 -284 -291 -145 0
269 -282 -284 -291 -146 0
270 -282 -284 -291 -147 0
268 -282 -285 -289 -148 0
269 -282 -285 -289 -149 0
270 -282 -285 -289 -150 0
268 -282 -285 -290 -151 0
269 -282 -285 -290 -152 0
270 -282 -285 -290 -153 0
268 -282 -285 -291 -106 0
269 -282 -285 -291 -107 0
270 -282 -285 -291 -108 0
271 -280 -283 -154 0
272 -280 -283 -155 0
273 -280 -283 -156 0
271 -280 -284 -157 0
272 -280 -284 -158 0
273 -280 -284 -159 0
271 -280 -285 -160 0
272 -280 -285 -161 0
273 -280 -285 -162 0
271 -281 -283 -163 0
272 -281 -283 -164 0
273 -281 -283 -165 0
271 -281 -284 -166 0
272 -281 -284 -167 0
273 -281 -284 -168 0
271 -281 -285 -169 0
272 -281 -285 -170 0
273 -281 -285 -171 0
271 -282 -283 -172 0
272 -282 -283 -173 0
273 -282 -283 -174 0
271 -282 -284 -175 0
272 -282 -284 -176 0
273 -282 -284 -177 0
271 -282 -285 -178 0
272 -282 -285 -179 0
273 -282 -285 -180 0
274 -277 -286 -181 0
275 -277 -286 -182 0
276 -277 -286 -183 0
274 -277 -287 -184 0
275 -277 -287 -185 0
276 -277 -287 -186 0
274 -277 -288 -187 0
275 -277 -288 -188 0
276 -277 -288 -189 0
274 -278 -286 -190 0
275 -278 -286 -191 0
276 -278 -286 -192 0
274 -278 -287 -193 0
275 -278 -287 -194 0
276 -278 -287 -195 0
274 -278 -288 -196 0
275 -278 -288 -197 0
276 -278 -288 -198 0
274 -279 -286 -199 0
275 -279 -286 -200 0
276 -279 -286 -201 0
274 -279 -287 -202 0
275 -279 -287 -203 0
276 -279 -287 -204 0
274 -279 -288 -205 0
275 -279 -288 -206 0
276 -279 -288 -207 0
277 -286 -208 0
278 -286 -209 0
279 -286 -210 0
277 -287 -211 0
278 -287 -212 0
279 -287 -213 0
277 -288 -214 0
278 -288 -215 0
279 -288 -216 0
280 -283 -217 0
281 -283 -218 0
282 -283 -219 0
280 -284 -220 0
281 -284 -221 0
282 -284 -222 0
280 -285 -223 0
281 -285 -224 0
282 -285 -225 0
283 -226 0
284 -227 0
285 -228 0
286 -229 0
287 -230 0
288 -231 0
289 -280 -283 -232 0
290 -280 -283 -233 0
291 -280 -283 -234 0
289 -280 -284 -235 0
290 -280 -284 -236 0
291 -280 -284 -237 0
289 -280 -285 -238 0
290 -280 -285 -239 0
291 -280 -285 -240 0
289 -281 -283 -241 0
290 -281 -283 -242 0
291 -281 -283 -243 0
289 -281 -284 -244 0
290 -281 -284 -245 0
291 -281 -284 -246 0
289 -281 -285 -247 0
290 -281 -285 -248 0
291 -281 -285 -249 0
289 -282 -283 -250 0
290 -282 -283 -251 0
291 -282 -283 -252 0
289 -282 -284 -253 0
290 -282 -284 -254 0
291 -282 -284 -255 0
289 -282 -285 -256 0
290 -282 -285 -257 0
291 -282 -285 -258 0
-272 0
-273 0

